Assets/LKHProbs~/skull.34.tsp
NAME : GeneratedProblem
COMMENT : SVGCrosshatch
TYPE : TSP
DIMENSION : 14
EDGE_WEIGHT_TYPE : EUC_2D
NODE_COORD_SECTION
1 6500 5500
2 6500 5600
3 6500 5700
4 6600 5500
5 6700 5100
6 6700 5200
7 6700 5300
8 6800 5100
9 6900 4600
10 6900 4700
11 6900 4800
12 6900 4900
13 7000 4600
14 7000 4700
EOF
