Assets/LKHProbs~/skull.34.out.txt
NAME : GeneratedProblem.2542.tour
COMMENT : Length = 2542
COMMENT : Found by LKH [Keld Helsgaun] Sun Nov 25 13:17:34 2018
TYPE : TOUR
DIMENSION : 14
TOUR_SECTION
1
2
3
4
7
8
12
14
13
9
10
11
5
6
-1
EOF
